Please solve the following SAT Problem encoded in DIMACS format, provide line of thoughts, write your final answer as a single solution at the end of response with header 'answer: ' : 
p cnf 5 14
2 3 1 0
-5 -2 -3 0
1 -4 -5 0
3 -5 2 0
-5 -3 4 0
3 -5 2 0
2 -4 -3 0
-1 -4 -5 0
-5 -2 3 0
2 1 5 0
-4 -5 1 0
3 1 2 0
-4 -5 -1 0
3 1 2 0

